/* Objective function */
// xi -> bloco i a retirar
max: 15 x1 + 2 x2   - 5 x3   -  3 x4  - 1 x5   + 14 x6  - 1 x7   - 4 x8  - 4 x9  + 4 x10
   - 3 x11 - 3 x12  + 13 x13 - 3 x14  - 3 x15  - 3 x16  + 17 x17 - 3 x18 - 2 x19 - 2 x20
   - 2 x21 - 2 x22  + 10 x23 + 12 x24 + 13 x25 + 38 x26 - 2 x27  - 2 x28 - 1 x29 - 1 x30
   - 1 x31 - 1 x32  - 1 x33  - 1 x34  + 9 x35  + 7 x36  - 1 x37  - 1 x38 - 1 x39 - 1 x40;
   
/* Variable bounds */
// Garantir que quando se remove um bloco, são removidos os 3 blocos por cima
// Nível 1 não necessita de restrições

 // Nível 5
    x1 - x5  <= 0;
    x1 - x6  <= 0;
    x1 - x7  <= 0;
    x2 - x6  <= 0;
    x2 - x7  <= 0;
    x2 - x8  <= 0;
    x3 - x7  <= 0;
    x3 - x8  <= 0;
    x3 - x9  <= 0;
    x4 - x8  <= 0;
    x4 - x9  <= 0;
    x4 - x10 <= 0;
    
    
 //Nível 4
    x5 - x11  <= 0;
    x5 - x12  <= 0;
    x5 - x13  <= 0;
    x6 - x12  <= 0;
    x6 - x13  <= 0;
    x6 - x14  <= 0;
    x7 - x13  <= 0;
    x7 - x14  <= 0;
    x7 - x15  <= 0;
    x8 - x14  <= 0;
    x8 - x15  <= 0;
    x8 - x16  <= 0;
    x9 - x15  <= 0;
    x9 - x16  <= 0;
    x9 - x17  <= 0;
    x10 - x16 <= 0;
    x10 - x17 <= 0;
    x10 - x18 <= 0;

 //Nível 3
    x11 - x19 <= 0;
    x11 - x20 <= 0;
    x11 - x21 <= 0;
    x12 - x20 <= 0;
    x12 - x21 <= 0;
    x12 - x22 <= 0;
    x13 - x21 <= 0;
    x13 - x22 <= 0;
    x13 - x23 <= 0;
    x14 - x22 <= 0;
    x14 - x23 <= 0;
    x14 - x24 <= 0;
    x15 - x23 <= 0;
    x15 - x24 <= 0;
    x15 - x25 <= 0;
    x16 - x24 <= 0;
    x16 - x25 <= 0;
    x16 - x26 <= 0;
    x17 - x25 <= 0;
    x17 - x26 <= 0;
    x17 - x27 <= 0;
    x18 - x26 <= 0;
    x18 - x27 <= 0;
    x18 - x28 <= 0;
    
 //Nível 4
    x19 - x29 <= 0;
    x19 - x30 <= 0;
    x19 - x31 <= 0;
    x20 - x30 <= 0;
    x20 - x31 <= 0;
    x20 - x32 <= 0;
    x21 - x31 <= 0;
    x21 - x32 <= 0;
    x21 - x33 <= 0;
    x22 - x32 <= 0;
    x22 - x33 <= 0;
    x22 - x34 <= 0;
    x23 - x33 <= 0;
    x23 - x34 <= 0;
    x23 - x35 <= 0;
    x24 - x34 <= 0;
    x24 - x35 <= 0;
    x24 - x36 <= 0;
    x25 - x35 <= 0;
    x25 - x36 <= 0;
    x25 - x37 <= 0;
    x26 - x36 <= 0;
    x26 - x37 <= 0;
    x26 - x38 <= 0;
    x27 - x37 <= 0;
    x27 - x38 <= 0;
    x27 - x39 <= 0;
    x28 - x38 <= 0;
    x28 - x39 <= 0;
    x28 - x40 <= 0;



bin x1,x2,x3,x4,x5,x6,x7,x8,x9,x10;
bin x11,x12, x13, x14,x15,x16,x17,x18,x19,x20;
bin x21,x22,x23,x24,x25,x26,x27,x28,x29,x30;
bin x31,x32,x33,x34,x35,x36,x37,x38,x39,x40;